************************************************************************
file with basedata            : mf8_.bas
initial value random generator: 1853822790
************************************************************************
projects                      :  1
jobs (incl. supersource/sink ):  32
horizon                       :  224
RESOURCES
  - renewable                 :  2   R
  - nonrenewable              :  2   N
  - doubly constrained        :  0   D
************************************************************************
PROJECT INFORMATION:
pronr.  #jobs rel.date duedate tardcost  MPM-Time
    1     30      0       34       15       34
************************************************************************
PRECEDENCE RELATIONS:
jobnr.    #modes  #successors   successors
   1        1          3           2   3   4
   2        3          3          11  12  13
   3        3          1           5
   4        3          3           6   7  11
   5        3          3          15  17  22
   6        3          3           8   9  15
   7        3          1          31
   8        3          1          10
   9        3          3          12  24  31
  10        3          2          13  24
  11        3          1          14
  12        3          3          16  21  25
  13        3          3          16  21  28
  14        3          1          20
  15        3          3          18  19  27
  16        3          1          22
  17        3          3          26  30  31
  18        3          3          20  23  28
  19        3          2          20  23
  20        3          1          25
  21        3          2          22  23
  22        3          1          27
  23        3          1          26
  24        3          2          28  30
  25        3          2          26  30
  26        3          1          29
  27        3          1          29
  28        3          1          29
  29        3          1          32
  30        3          1          32
  31        3          1          32
  32        1          0        
************************************************************************
REQUESTS/DURATIONS:
jobnr. mode duration  R 1  R 2  N 1  N 2
------------------------------------------------------------------------
  1      1     0       0    0    0    0
  2      1     2       5    6    0   10
         2     4       5    4    0    9
         3     5       4    4    6    0
  3      1     1       7    7    0    7
         2     4       7    6    0    7
         3     4       6    7    3    0
  4      1     1       8    9    0    2
         2     3       6    7    8    0
         3     7       3    5    8    0
  5      1     3      10    9    0    3
         2     8      10    6    8    0
         3    10      10    4    6    0
  6      1     6       3    5    8    0
         2     6       3    5    0    9
         3     8       3    4    8    0
  7      1     2       6    8    0    6
         2     2       5   10    7    0
         3     4       5    7    7    0
  8      1     3       1    8    0    5
         2     5       1    8    0    4
         3    10       1    5    0    3
  9      1     5       8    4    8    0
         2     9       6    2    7    0
         3    10       5    2    7    0
 10      1     2       3    5    5    0
         2     9       3    5    0    3
         3    10       2    4    0    3
 11      1     4       3    8    0    8
         2     9       3    4    0    6
         3    10       3    3    0    2
 12      1     5       6    8    5    0
         2     5       7    8    0    9
         3     7       6    7    0    1
 13      1     1       3    8    0    8
         2     5       2    4    7    0
         3     7       1    2    0    8
 14      1     4       8    7    5    0
         2     6       7    5    4    0
         3     9       6    2    4    0
 15      1     4       7    8    5    0
         2     7       6    8    4    0
         3     7       4    8    0    2
 16      1     1       6    5    5    0
         2     4       5    4    0    8
         3     9       5    3    2    0
 17      1     2       4    8    3    0
         2     4       4    7    0    7
         3     4       4    6    3    0
 18      1     1       8    8    9    0
         2     7       8    7    7    0
         3     9       5    3    7    0
 19      1     1      10    8    0    5
         2     4       7    8    9    0
         3     5       5    7    9    0
 20      1     2       7   10    4    0
         2     4       7    9    0    4
         3     8       5    8    0    4
 21      1     3       9    7    0    7
         2     3       8    5    7    0
         3     4       4    5    5    0
 22      1     3      10    7    0    8
         2     8      10    6    0    8
         3     9       9    6    6    0
 23      1     5       5    9    7    0
         2     6       5    9    0    8
         3     8       5    9    6    0
 24      1     1       4    7    0    5
         2     5       4    7    5    0
         3     8       3    5    5    0
 25      1     1       7    8    4    0
         2     2       7    8    0    5
         3     6       5    5    0    4
 26      1     4       4    7    0    8
         2     7       4    6    0    6
         3     8       4    4    3    0
 27      1     1       8    6    8    0
         2     2       7    5    8    0
         3     7       5    2    8    0
 28      1     9       3    3    8    0
         2     9       4    4    0    6
         3     9       6    4    7    0
 29      1     5       9    4    0    1
         2     8       9    3    9    0
         3     9       8    2    9    0
 30      1     3      10    6    9    0
         2     6       6    4    8    0
         3     8       3    3    0    7
 31      1     1       8    9    0    7
         2     3       6    9    0    7
         3     5       3    8    0    7
 32      1     0       0    0    0    0
************************************************************************
RESOURCEAVAILABILITIES:
  R 1  R 2  N 1  N 2
   31   42   62   49
************************************************************************
